c --- [ banner ] -------------------------------------------------------------
c 
c CaDiCaL Radically Simplified CDCL SAT Solver
c Copyright (c) 2016-2021 A. Biere, M. Fleury, N. Froleyks
c 
c Version 1.5.2 ca9bff05c11bde5eae4912f9932871d1527e61d8
c g++ (GCC) 9.3.0 -Wall -Wextra -O3 -DNDEBUG
c Thu Jul 28 23:42:48 EDT 2022 Linux gra-login3 3.10.0-1160.66.1.el7.x86_64 x86_64
c 
c --- [ limit ] --------------------------------------------------------------
c 
c setting conflict limit to 200000 conflicts (due to '200000')
c 
c --- [ parsing input ] ------------------------------------------------------
c 
c reading DIMACS file from '23.cubes687.adj'
c opening file to read '23.cubes687.adj'
c found 'p cnf 5320 914895' header
c parsed 914895 clauses in 8.24 seconds process time
c closing file '23.cubes687.adj'
c after reading 637830008 bytes 608.3 MB
c 
c --- [ options ] ------------------------------------------------------------
c 
c all options are set to their default value
c 
c --- [ solving ] ------------------------------------------------------------
c 
c time measured in process time since initialization
c 
c  seconds   reductions  redundant  irredundant
c          MB    restarts       trail      variables
c           level   conflicts       glue        remaining
c 
c *  8.24 631  0 0   0    0    0  0% 0 914847 2135 40%
c {  8.48 645  0 0   0    0    0  0% 0 914847 2135 40%
c i  9.59 694 240 0   1  103   86 20% 4 914847 2122 40%
c - 13.60 686 93 1  22  300  198 19% 11 285393 2122 40%
c i 13.69 686 45 1  22  683  238 17% 10 285393 2121 40%
c i 13.94 686 45 1  24  698  251 18% 10 285393 2119 40%
c i 14.46 688 48 1  36  740  287 18% 11 285393 2113 40%
c i 15.20 689 53 1  61  833  364 19% 14 285393 2105 40%
c i 15.25 690 52 1  66  854  383 19% 14 285393 2104 40%
c i 15.32 690 52 1  69  867  394 19% 14 285393 2103 40%
c i 15.35 690 53 1  70  871  396 19% 14 285393 2101 39%
c i 15.35 690 53 1  71  876  398 19% 14 285393 2100 39%
c i 15.35 690 53 1  72  877  398 19% 14 285393 2099 39%
c i 15.79 690 58 1  86  934  452 19% 17 285393 2098 39%
c } 16.10 690 57 1 103 1001  478 19% 17 285393 2098 39%
c [ 16.10 690  0 1 103 1001  478  0% 0 285393 2098 39%
c O 16.11 690  0 1 103 1002  478 11% 0 285393 2098 39%
c i 16.11 690  0 1 103 1002  478 11% 0 285393 2055 39%
c i 16.11 690  1 1 103 1003  478 10% 0 285393 2044 38%
c - 16.95 774 12 2 103 1173  473 19% 10 284041 2044 38%
c 
c  seconds   reductions  redundant   irredundant
c          MB    restarts       trail       variables
c           level   conflicts       glue         remaining
c 
c i 17.05 774 13 2 103 1182  478 19% 11 284041 2043 38%
c i 17.16 774 16 2 103 1234  519 22% 13 284041 2042 38%
c i 17.25 774 18 2 103 1317  581 24% 14 284041 2041 38%
c i 17.48 774 20 2 103 1490  690 25% 15 284041 2040 38%
c i 17.52 774 20 2 103 1559  735 26% 16 284041 2039 38%
c i 17.61 774 23 2 103 1690  812 27% 18 284041 2038 38%
c i 17.77 774 25 2 103 2030 1013 27% 21 284041 2037 38%
c - 18.68 772 25 3 104 2481 1144 53% 21 284020 2037 38%
c ] 18.89 772 24 3 104 3004 1456 53% 20 284020 2037 38%
c { 18.89 772 57 3 104 3004 1456 50% 17 284020 2037 38%
c F 18.89 772 57 3 104 3005 1456 50% 17 284020 2037 38%
c i 18.89 772 57 3 104 3005 1456 50% 17 284020 2026 38%
c i 19.69 772 58 3 122 3121 1550 50% 19 284020 2024 38%
c i 20.19 772 58 3 139 3194 1613 49% 19 284020 2023 38%
c i 20.48 772 59 3 147 3231 1648 50% 20 284020 2022 38%
c i 20.74 772 59 3 157 3276 1686 49% 21 284020 2021 38%
c i 21.21 772 51 3 169 3551 1758 46% 19 284020 2020 38%
c i 21.66 772 51 3 193 3656 1850 46% 20 284020 2019 38%
c i 22.32 772 52 3 218 3810 1972 46% 20 284020 2018 38%
c i 22.77 772 53 3 237 3904 2052 46% 21 284020 2017 38%
c 
c  seconds   reductions  redundant   irredundant
c          MB    restarts       trail       variables
c           level   conflicts       glue         remaining
c 
c - 25.24 769 56 4 294 4226 1745 46% 22 283567 2017 38%
c i 25.38 769 55 4 294 4285 1783 46% 22 283567 2016 38%
c i 25.38 769 55 4 294 4289 1786 46% 22 283567 2015 38%
c i 25.44 769 54 4 294 4355 1835 46% 22 283567 2014 38%
c i 25.46 769 54 4 294 4398 1859 46% 22 283567 2013 38%
c i 25.69 769 47 4 294 4991 2269 47% 21 283567 2012 38%
c 2 26.20 769 47 4 294 5002 3682 47% 21 283540 1987 37%
c p 31.77 769 47 4 294 5002 6379 47% 21 283540 1929 36%
c d 32.25 769 47 4 294 5002 6284 47% 21 267863 1926 36%
c # 33.48 769 41 4 315 6007 6997 48% 20 267863 1926 36%
c - 33.99 752 39 5 315 6404 2661 48% 19 267863 1926 36%
c } 34.29 752 36 5 315 7005 3095 49% 18 267863 1926 36%
c [ 34.29 752 24 5 315 7005 3095 53% 20 267863 1926 36%
c - 35.00 752 21 6 316 8974 3048 53% 18 267863 1926 36%
c I 35.61 752 20 6 317 10010 3680 53% 17 267863 1926 36%
c - 37.78 752 27 7 319 11975 3643 53% 22 267863 1926 36%
c 2 41.99 752 28 7 320 15002 6864 53% 23 267861 1926 36%
c p 43.63 752 28 7 320 15002 9537 53% 23 267861 1926 36%
c ] 43.78 752 28 7 320 15005 9540 53% 23 267861 1926 36%
c { 43.78 752 36 7 320 15005 9540 49% 18 267861 1926 36%
c 
c  seconds   reductions   redundant   irredundant
c          MB    restarts        trail       variables
c           level    conflicts       glue         remaining
c 
c B 43.88 752 36 7 321 15013 9547 49% 18 267861 1926 36%
c - 45.05 649 36 8 344 15402 4244 49% 19 267861 1926 36%
c s 48.93 649 34 8 462 17489 5426 50% 18 266527 1926 36%
c v 53.36 649 34 8 462 17489 5426 50% 18 266518 1926 36%
c t 53.47 649 34 8 462 17489 5422 50% 18 266509 1926 36%
c e 54.46 650 34 8 462 17489 4938 50% 18 264217 842 16%
c s 54.56 650 34 8 462 17489 4938 50% 18 264030 842 16%
c - 57.43 650 32 9 548 19257 4234 73% 19 264030 842 16%
c W 60.77 650 32 9 671 21015 5469 70% 19 264030 842 16%
c - 66.97 754 35 10 948 23521 5189 70% 21 264030 842 16%
c F 79.68 754 35 10 1396 28021 8783 70% 22 264030 842 16%
c - 80.33 650 35 11 1407 28212 6555 70% 22 264030 842 16%
c 3 84.00 650 35 11 1479 30002 8489 71% 21 264030 842 16%
c p 85.42 650 35 11 1479 30002 10782 71% 21 264030 842 16%
c } 88.21 650 35 11 1570 31005 11536 71% 22 264030 842 16%
c [ 88.21 650 28 11 1570 31005 11536 128% 23 264030 842 16%
c - 89.90 651 27 12 1570 33332 7435 116% 23 264030 842 16%
c B 91.86 651 26 12 1573 36022 8890 107% 22 264030 842 16%
c - 93.35 755 27 13 1575 38876 7645 102% 23 264030 842 16%
c ] 94.72 755 28 13 1577 42026 10030 97% 24 264030 842 16%
c 
c  seconds   reductions      redundant   irredundant
c          MB     restarts          trail       variables
c           level      conflicts        glue        remaining
c 
c 1 94.72 755 28 13 1577 42026 10030 97% 24 264030 842 16%
c 
c --- [ writing output ] -----------------------------------------------------
c 
c writing simplified CNF to DIMACS file 'simp/23.cubes687.adj.simp1'
c * 94.72 755 28 13 1577 42026 10030 97% 24 264030 842 16%
c opening file to write 'simp/23.cubes687.adj.simp1'
c writing 'p cnf 5320 264030' header
c closing file 'simp/23.cubes687.adj.simp1'
c after writing 116185816 bytes 110.8 MB
c wrote 264030 clauses in 0.89 seconds process time
c 
c --- [ writing extension ] --------------------------------------------------
c 
c writing extension stack to 'simp/23.cubes687.adj.ext1'
c opening file to write 'simp/23.cubes687.adj.ext1'
c closing file 'simp/23.cubes687.adj.ext1'
c after writing 74494 bytes 0.1 MB
c wrote 3247 witnesses in 0.00 seconds process time
c 
c --- [ result ] -------------------------------------------------------------
c 
s SATISFIABLE
c 
c --- [ run-time profiling ] -------------------------------------------------
c 
c process time taken by individual solving procedures
c (percentage relative to process time for solving)
c 
c        70.21   81.19% search
c        52.79   61.05% unstable
c        17.05   19.72% stable
c        16.27   18.81% simplify
c         8.58    9.92% probe
c         8.24    9.53% parse
c         4.50    5.20% vivify
c         1.81    2.09% elim
c         0.23    0.27% lucky
c         0.20    0.23% subsume
c         0.13    0.15% walk
c         0.12    0.14% ternary
c   =================================
c        86.48   90.44% solve
c 
c last line shows process time for solving
c (percentage relative to total process time)
c 
c --- [ statistics ] ---------------------------------------------------------
c 
c chronological:              8626        20.53 %  of conflicts
c conflicts:                 42026       485.98    per second
c decisions:                140552      1625.32    per second
c eliminated:                 1084        20.38 %  of all variables
c fixed:                       548        10.30 %  of all variables
c learned:                   41012        97.59 %  per conflict
c learned_lits:            7090576       100.00 %  learned literals
c minimized:                     0         0.00 %  learned literals
c shrunken:                4417438        62.30 %  learned literals
c minishrunken:             529617         7.47 %  learned literals
c propagations:            4093391         0.05 M  per second
c reduced:                   18435        43.87 %  per conflict
c rephased:                      8      5253.25    interval
c restarts:                   1577        26.65    interval
c stabilizing:                   3        50.03 %  of conflicts
c substituted:                   9         0.17 %  of all variables
c subsumed:                  13741         0.68 %  of all clauses
c strengthened:               5633         0.28 %  of all clauses
c ternary:                    3346         0.78 %  of resolved
c vivified:                     19         0.00 %  of all clauses
c walked:                        1     42026.00    interval
c weakened:                   2699         3.09    average size
c 
c seconds are measured in process time for solving
c 
c --- [ resources ] ----------------------------------------------------------
c 
c total process time since initialization:        95.62    seconds
c total real time since initialization:           95.80    seconds
c maximum resident set size of process:          896.95    MB
c 
c --- [ shutting down ] ------------------------------------------------------
c 
c exit 10
WARNING! DIMACS header mismatch: wrong number of variables.
============================[ Problem Statistics ]=============================
|                                                                             |
|  Number of variables:          5282                                         |
|  Number of clauses:          264034                                         |
|  Parse time:                   1.59 s                                       |
|  Simplification time:          0.03 s                                       |
|                                                                             |
============================[ Search Statistics ]====================================================
| Conflicts |          ORIGINAL         |          LEARNT          | Num Sols |      SUBGRAPHS      |
|           |    Vars  Clauses Literals |    Limit  Clauses Lit/Cl |          | Canonical Noncanon. |
=====================================================================================================
|       202 |    5208   264136 25810656 |     2000      202    107 |        0 |        65       102 |
|       893 |    5208   264677 25820908 |     2000      893     38 |        0 |       233       643 |
|      1550 |    5208   265109 25829927 |     2000     1550     36 |        0 |       403      1075 |
|      1906 |    5208   265128 25830336 |     2000     1906     52 |        0 |       415      1094 |
|      2425 |    5208   265141 25830637 |     3599     1424     34 |        0 |       434      1107 |
|      3260 |    5208   265217 25832208 |     3599     2259     57 |        0 |       447      1183 |
|      4966 |    5208   265784 25839813 |     5007     2173     28 |        0 |       648      1750 |
|     10320 |    5208   269430 25903169 |     6308     5028     30 |        0 |      1663      5396 |
|     14630 |    5208   271178 25930748 |     7557     6187     35 |        0 |      2054      7144 |
|     28305 |    5208   281009 26101712 |    11205     6710     12 |        0 |      3521     16975 |
|     37797 |    5208   284735 26156416 |    12410    10607     52 |        0 |      4026     20701 |
|     46862 |    5208   285151 26164801 |    13612    13474     62 |        0 |      4147     21117 |
|     74789 |    5208   300104 26422868 |    18416    10605     12 |        0 |      7294     36070 |
|    101278 |    5208   307132 26543982 |    20819    18097     42 |        0 |      8910     43098 |
|    139116 |    5208   315778 26687362 |    24408    22924     46 |        0 |     10415     51744 |
|    194721 |    5208   327594 26863466 |    29209    26130     58 |        1 |     11498     63559 |
|    269317 |    5208   336506 27011031 |    35227    21744     35 |        2 |     13697     72470 |
|    392851 |    5200   361514 27376515 |    42424    30675     48 |        3 |     17725     97477 |
|    564512 |    5200   385386 27789004 |    50812    41324     34 |        3 |     21913    121349 |
|    837077 |    5200   387395 24218750 |    62816    32893     22 |        3 |     27057    172231 |
=====================================================================================================
Number of solutions   : 3
Canonical subgraphs   : 32486          (35 /sec)
          order  3    : 1              (166667 /sec)
          order  4    : 1              (500000 /sec)
          order  5    : 1              (250000 /sec)
          order  6    : 1              (55556 /sec)
          order  7    : 1              (7937 /sec)
          order  8    : 2              (1364 /sec)
          order  9    : 7              (351 /sec)
          order 10    : 34             (119 /sec)
          order 11    : 180            (44 /sec)
          order 12    : 907            (44 /sec)
          order 13    : 4590           (61 /sec)
          order 14    : 11984          (51 /sec)
          order 15    : 7106           (30 /sec)
          order 16    : 4578           (24 /sec)
          order 17    : 2697           (19 /sec)
          order 18    : 368            (18 /sec)
          order 19    : 20             (20 /sec)
          order 20    : 5              (24 /sec)
          order 21    : 3              (2 /sec)
Noncanonical subgraphs: 220264         (311 /sec)
          order  3    : 0              (-nan /sec)
          order  4    : 0              (-nan /sec)
          order  5    : 0              (-nan /sec)
          order  6    : 0              (-nan /sec)
          order  7    : 0              (-nan /sec)
          order  8    : 0              (-nan /sec)
          order  9    : 0              (-nan /sec)
          order 10    : 0              (-nan /sec)
          order 11    : 0              (-nan /sec)
          order 12    : 0              (-nan /sec)
          order 13    : 23463          (2251 /sec)
          order 14    : 18075          (3047 /sec)
          order 15    : 165563         (276 /sec)
          order 16    : 7548           (189 /sec)
          order 17    : 5272           (114 /sec)
          order 18    : 341            (61 /sec)
          order 19    : 0              (-nan /sec)
          order 20    : 0              (-nan /sec)
Canonicity checking   : 930.36 s
Noncanonicity checking: 707.209 s
Total canonicity time : 1637.57 s
database reductions   : 58
restarts              : 2047
conflicts             : 1124691        (532 /sec)
decisions             : 1649087        (0.00 % random) (780 /sec)
propagations          : 50841937       (24047 /sec)
conflict literals     : 103560843      (53.87 % deleted)
actual reward         : 0.261485
Memory used           : 383.00 MB
CPU time              : 2114.27 s

UNSATISFIABLE
